data_III


_pd_block_id      tmaclo4_30k_prof

loop_
      _pd_proc_point_id                           
      _pd_proc_2theta_corrected          
      _pd_proc_intensity_net                     
1 5. 17
2 5.03 17
3 5.06 14
4 5.09 18
5 5.12 13
6 5.15 14
7 5.18 9
8 5.21 13
9 5.24 12
10 5.27 11
11 5.3 11
12 5.33 15
13 5.36 18
14 5.39 13
15 5.42 16
16 5.45 12
17 5.48 16
18 5.51 13
19 5.54 16
20 5.57 12
21 5.6 8
22 5.63 7
23 5.66 14
24 5.69 9
25 5.72 12
26 5.75 10
27 5.78 10
28 5.81 9
29 5.84 11
30 5.87 13
31 5.9 11
32 5.93 9
33 5.96 10
34 5.99 9
35 6.02 6
36 6.05 12
37 6.08 8
38 6.11 8
39 6.14 7
40 6.17 12
41 6.2 7
42 6.23 7
43 6.26 9
44 6.29 9
45 6.32 9
46 6.35 7
47 6.38 7
48 6.41 4
49 6.44 6
50 6.47 5
51 6.5 7
52 6.53 7
53 6.56 3
54 6.59 5
55 6.62 5
56 6.65 8
57 6.68 9
58 6.71 7
59 6.74 5
60 6.77 1
61 6.8 6
62 6.83 6
63 6.86 3
64 6.89 5
65 6.92 3
66 6.95 7
67 6.98 5
68 7.01 4
69 7.04 2
70 7.07 3
71 7.1 5
72 7.13 5
73 7.16 4
74 7.19 4
75 7.22 2
76 7.25 3
77 7.28 3
78 7.31 3
79 7.34 4
80 7.37 4
81 7.4 1
82 7.43 4
83 7.46 2
84 7.49 2
85 7.52 1
86 7.55 1
87 7.58 1
88 7.61 2
89 7.64 3
90 7.67 3
91 7.7 1
92 7.73 3
93 7.76 2
94 7.79 3
95 7.82 1
96 7.85 1
97 7.88 2
98 7.91 2
99 7.94 2
100 7.97 3
101 8 4
102 8.03 4
103 8.06 5
104 8.09 1
105 8.12 1
106 8.15 2
107 8.18 3
108 8.21 3
109 8.24 5
110 8.27 2
111 8.3 1
112 8.33 1
113 8.36 4
114 8.39 1
115 8.42 4
116 8.45 3
117 8.48 3
118 8.51 3
119 8.54 2
120 8.57 1
121 8.6 2
122 8.63 3
123 8.66 4
124 8.69 1
125 8.72 2
126 8.75 2
127 8.78 2
128 8.81 3
129 8.84 2
130 8.87 1
131 8.9 4
132 8.93 5
133 8.96 3
134 8.99 3
135 9.02 4
136 9.05 2
137 9.08 2
138 9.11 1
139 9.14 2
140 9.17 2
141 9.2 1
142 9.23 2
143 9.26 1
144 9.29 5
145 9.32 3
146 9.35 3
147 9.38 4
148 9.41 2
149 9.44 2
150 9.47 2
151 9.5 2
152 9.53 1
153 9.56 2
154 9.59 3
155 9.62 2
156 9.65 1
157 9.68 3
158 9.71 1
159 9.74 1
160 9.77 6
161 9.8 4
162 9.83 1
163 9.86 3
164 9.89 2
165 9.92 2
166 9.95 3
167 9.98 4
168 10.01 1
169 10.04 1
170 10.07 1
171 10.1 3
172 10.13 3
173 10.16 3
174 10.19 2
175 10.22 4
176 10.25 4
177 10.28 1
178 10.31 2
179 10.34 2
180 10.37 5
181 10.4 4
182 10.43 2
183 10.46 2
184 10.49 4
185 10.52 3
186 10.55 3
187 10.58 2
188 10.61 3
189 10.64 1
190 10.67 2
191 10.7 4
192 10.73 4
193 10.76 4
194 10.79 3
195 10.82 1
196 10.85 3
197 10.88 5
198 10.91 5
199 10.94 6
200 10.97 3
201 11 6
202 11.03 4
203 11.06 3
204 11.09 7
205 11.12 8
206 11.15 8
207 11.18 5
208 11.21 7
209 11.24 5
210 11.27 13
211 11.3 12
212 11.33 11
213 11.36 16
214 11.39 10
215 11.42 11
216 11.45 16
217 11.48 12
218 11.51 15
219 11.54 13
220 11.57 13
221 11.6 14
222 11.63 17
223 11.66 14
224 11.69 13
225 11.72 15
226 11.75 14
227 11.78 10
228 11.81 10
229 11.84 8
230 11.87 14
231 11.9 14
232 11.93 13
233 11.96 8
234 11.99 12
235 12.02 9
236 12.05 12
237 12.08 8
238 12.11 12
239 12.14 8
240 12.17 12
241 12.2 10
242 12.23 11
243 12.26 9
244 12.29 9
245 12.32 10
246 12.35 6
247 12.38 12
248 12.41 8
249 12.44 7
250 12.47 10
251 12.5 8
252 12.53 8
253 12.56 10
254 12.59 8
255 12.62 5
256 12.65 6
257 12.68 3
258 12.71 5
259 12.74 6
260 12.77 5
261 12.8 2
262 12.83 4
263 12.86 4
264 12.89 4
265 12.92 3
266 12.95 4
267 12.98 5
268 13.01 6
269 13.04 5
270 13.07 3
271 13.1 5
272 13.13 4
273 13.16 3
274 13.19 5
275 13.22 5
276 13.25 1
277 13.28 4
278 13.31 3
279 13.34 2
280 13.37 4
281 13.4 3
282 13.43 3
283 13.46 2
284 13.49 3
285 13.52 5
286 13.55 3
287 13.58 2
288 13.61 4
289 13.64 2
290 13.67 5
291 13.7 4
292 13.73 4
293 13.76 6
294 13.79 4
295 13.82 4
296 13.85 7
297 13.88 4
298 13.91 5
299 13.94 4
300 13.97 5
301 14 3
302 14.03 5
303 14.06 3
304 14.09 4
305 14.12 4
306 14.15 3
307 14.18 5
308 14.21 4
309 14.24 5
310 14.27 4
311 14.3 5
312 14.33 3
313 14.36 2
314 14.39 6
315 14.42 5
316 14.45 5
317 14.48 2
318 14.51 6
319 14.54 1
320 14.57 8
321 14.6 3
322 14.63 3
323 14.66 6
324 14.69 4
325 14.72 4
326 14.75 4
327 14.78 2
328 14.81 3
329 14.84 7
330 14.87 8
331 14.9 5
332 14.93 6
333 14.96 5
334 14.99 7
335 15.02 6
336 15.05 6
337 15.08 9
338 15.11 9
339 15.14 21
340 15.17 19
341 15.2 26
342 15.23 28
343 15.26 22
344 15.29 43
345 15.32 48
346 15.35 65
347 15.38 92
348 15.41 125
349 15.44 154
350 15.47 168
351 15.5 187
352 15.53 149
353 15.56 136
354 15.59 120
355 15.62 90
356 15.65 97
357 15.68 114
358 15.71 153
359 15.74 177
360 15.77 212
361 15.8 238
362 15.83 223
363 15.86 205
364 15.89 160
365 15.92 132
366 15.95 123
367 15.98 99
368 16.01 77
369 16.04 58
370 16.07 33
371 16.1 24
372 16.13 17
373 16.16 16
374 16.19 8
375 16.22 13
376 16.25 6
377 16.28 8
378 16.31 11
379 16.34 9
380 16.37 11
381 16.4 8
382 16.43 6
383 16.46 6
384 16.49 7
385 16.52 7
386 16.55 7
387 16.58 6
388 16.61 5
389 16.64 4
390 16.67 5
391 16.7 6
392 16.73 7
393 16.76 5
394 16.79 5
395 16.82 3
396 16.85 6
397 16.88 6
398 16.91 5
399 16.94 6
400 16.97 6
401 17 7
402 17.03 5
403 17.06 6
404 17.09 3
405 17.12 9
406 17.15 10
407 17.18 7
408 17.21 9
409 17.24 11
410 17.27 8
411 17.3 11
412 17.33 13
413 17.36 17
414 17.39 17
415 17.42 22
416 17.45 31
417 17.48 37
418 17.51 44
419 17.54 47
420 17.57 48
421 17.6 49
422 17.63 45
423 17.66 44
424 17.69 33
425 17.72 29
426 17.75 28
427 17.78 25
428 17.81 20
429 17.84 20
430 17.87 18
431 17.9 11
432 17.93 10
433 17.96 9
434 17.99 8
435 18.02 7
436 18.05 11
437 18.08 6
438 18.11 6
439 18.14 7
440 18.17 8
441 18.2 6
442 18.23 5
443 18.26 3
444 18.29 8
445 18.32 6
446 18.35 8
447 18.38 5
448 18.41 4
449 18.44 7
450 18.47 7
451 18.5 8
452 18.53 8
453 18.56 8
454 18.59 5
455 18.62 6
456 18.65 9
457 18.68 3
458 18.71 8
459 18.74 5
460 18.77 5
461 18.8 10
462 18.83 11
463 18.86 13
464 18.89 13
465 18.92 10
466 18.95 16
467 18.98 12
468 19.01 20
469 19.04 34
470 19.07 40
471 19.1 52
472 19.13 67
473 19.16 97
474 19.19 112
475 19.22 153
476 19.25 184
477 19.28 221
478 19.31 225
479 19.34 248
480 19.37 239
481 19.4 179
482 19.43 145
483 19.46 81
484 19.49 63
485 19.52 40
486 19.55 21
487 19.58 12
488 19.61 13
489 19.64 10
490 19.67 16
491 19.7 12
492 19.73 7
493 19.76 9
494 19.79 10
495 19.82 10
496 19.85 10
497 19.88 10
498 19.91 5
499 19.94 6
500 19.97 8
501 20 10
502 20.03 6
503 20.06 10
504 20.09 10
505 20.12 9
506 20.15 5
507 20.18 6
508 20.21 9
509 20.24 7
510 20.27 10
511 20.3 7
512 20.33 10
513 20.36 8
514 20.39 9
515 20.42 7
516 20.45 5
517 20.48 8
518 20.51 6
519 20.54 15
520 20.57 10
521 20.6 9
522 20.63 5
523 20.66 8
524 20.69 8
525 20.72 8
526 20.75 6
527 20.78 7
528 20.81 5
529 20.84 4
530 20.87 4
531 20.9 8
532 20.93 8
533 20.96 5
534 20.99 6
535 21.02 11
536 21.05 6
537 21.08 7
538 21.11 7
539 21.14 7
540 21.17 9
541 21.2 11
542 21.23 12
543 21.26 10
544 21.29 5
545 21.32 13
546 21.35 6
547 21.38 13
548 21.41 8
549 21.44 12
550 21.47 19
551 21.5 19
552 21.53 34
553 21.56 51
554 21.59 49
555 21.62 69
556 21.65 100
557 21.68 133
558 21.71 190
559 21.74 268
560 21.77 401
561 21.8 552
562 21.83 741
563 21.86 959
564 21.89 1393
565 21.92 1803
566 21.95 2432
567 21.98 3047
568 22.01 3370
569 22.04 3432
570 22.07 3118
571 22.1 2869
572 22.13 2428
573 22.16 2098
574 22.19 1758
575 22.22 1530
576 22.25 1413
577 22.28 1360
578 22.31 1418
579 22.34 1294
580 22.37 1151
581 22.4 945
582 22.43 672
583 22.46 451
584 22.49 259
585 22.52 196
586 22.55 137
587 22.58 100
588 22.61 76
589 22.64 73
590 22.67 72
591 22.7 75
592 22.73 62
593 22.76 70
594 22.79 53
595 22.82 53
596 22.85 51
597 22.88 38
598 22.91 38
599 22.94 39
600 22.97 35
601 23 30
602 23.03 29
603 23.06 28
604 23.09 26
605 23.12 19
606 23.15 19
607 23.18 18
608 23.21 13
609 23.24 12
610 23.27 16
611 23.3 13
612 23.33 15
613 23.36 17
614 23.39 19
615 23.42 16
616 23.45 18
617 23.48 24
618 23.51 22
619 23.54 32
620 23.57 30
621 23.6 37
622 23.63 31
623 23.66 24
624 23.69 24
625 23.72 16
626 23.75 18
627 23.78 16
628 23.81 10
629 23.84 7
630 23.87 7
631 23.9 5
632 23.93 4
633 23.96 7
634 23.99 10
635 24.02 9
636 24.05 9
637 24.08 6
638 24.11 7
639 24.14 3
640 24.17 7
641 24.2 6
642 24.23 7
643 24.26 7
644 24.29 4
645 24.32 6
646 24.35 8
647 24.38 6
648 24.41 5
649 24.44 3
650 24.47 8
651 24.5 5
652 24.53 7
653 24.56 8
654 24.59 6
655 24.62 8
656 24.65 6
657 24.68 10
658 24.71 6
659 24.74 6
660 24.77 7
661 24.8 8
662 24.83 5
663 24.86 8
664 24.89 8
665 24.92 5
666 24.95 5
667 24.98 8
668 25.01 7
669 25.04 9
670 25.07 5
671 25.1 8
672 25.13 6
673 25.16 3
674 25.19 8
675 25.22 5
676 25.25 7
677 25.28 7
678 25.31 9
679 25.34 4
680 25.37 4
681 25.4 7
682 25.43 3
683 25.46 10
684 25.49 8
685 25.52 6
686 25.55 6
687 25.58 6
688 25.61 5
689 25.64 5
690 25.67 8
691 25.7 7
692 25.73 5
693 25.76 7
694 25.79 6
695 25.82 6
696 25.85 8
697 25.88 6
698 25.91 9
699 25.94 7
700 25.97 9
701 26 4
702 26.03 7
703 26.06 7
704 26.09 4
705 26.12 6
706 26.15 2
707 26.18 12
708 26.21 4
709 26.24 8
710 26.27 5
711 26.3 6
712 26.33 6
713 26.36 8
714 26.39 11
715 26.42 3
716 26.45 6
717 26.48 5
718 26.51 5
719 26.54 9
720 26.57 7
721 26.6 11
722 26.63 7
723 26.66 9
724 26.69 5
725 26.72 10
726 26.75 9
727 26.78 7
728 26.81 13
729 26.84 18
730 26.87 20
731 26.9 23
732 26.93 32
733 26.96 47
734 26.99 60
735 27.02 76
736 27.05 92
737 27.08 87
738 27.11 77
739 27.14 63
740 27.17 53
741 27.2 43
742 27.23 31
743 27.26 29
744 27.29 17
745 27.32 15
746 27.35 8
747 27.38 9
748 27.41 8
749 27.44 8
750 27.47 12
751 27.5 13
752 27.53 10
753 27.56 12
754 27.59 13
755 27.62 17
756 27.65 16
757 27.68 24
758 27.71 33
759 27.74 42
760 27.77 59
761 27.8 81
762 27.83 96
763 27.86 119
764 27.89 137
765 27.92 117
766 27.95 113
767 27.98 91
768 28.01 76
769 28.04 53
770 28.07 34
771 28.1 30
772 28.13 11
773 28.16 14
774 28.19 12
775 28.22 11
776 28.25 11
777 28.28 10
778 28.31 10
779 28.34 12
780 28.37 13
781 28.4 7
782 28.43 13
783 28.46 8
784 28.49 11
785 28.52 9
786 28.55 12
787 28.58 9
788 28.61 6
789 28.64 7
790 28.67 8
791 28.7 7
792 28.73 13
793 28.76 11
794 28.79 13
795 28.82 13
796 28.85 20
797 28.88 22
798 28.91 27
799 28.94 39
800 28.97 49
801 29 54
802 29.03 52
803 29.06 54
804 29.09 61
805 29.12 65
806 29.15 56
807 29.18 51
808 29.21 55
809 29.24 57
810 29.27 53
811 29.3 70
812 29.33 77
813 29.36 92
814 29.39 105
815 29.42 105
816 29.45 99
817 29.48 72
818 29.51 67
819 29.54 40
820 29.57 31
821 29.6 25
822 29.63 23
823 29.66 14
824 29.69 11
825 29.72 8
826 29.75 10
827 29.78 12
828 29.81 9
829 29.84 10
830 29.87 7
831 29.9 7
832 29.93 7
833 29.96 10
834 29.99 7
835 30.02 11
836 30.05 6
837 30.08 10
838 30.11 10
839 30.14 11
840 30.17 6
841 30.2 10
842 30.23 7
843 30.26 9
844 30.29 6
845 30.32 7
846 30.35 11
847 30.38 12
848 30.41 13
849 30.44 11
850 30.47 14
851 30.5 13
852 30.53 13
853 30.56 19
854 30.59 36
855 30.62 46
856 30.65 56
857 30.68 58
858 30.71 71
859 30.74 61
860 30.77 53
861 30.8 56
862 30.83 46
863 30.86 40
864 30.89 23
865 30.92 22
866 30.95 14
867 30.98 15
868 31.01 16
869 31.04 16
870 31.07 15
871 31.1 9
872 31.13 17
873 31.16 19
874 31.19 24
875 31.22 43
876 31.25 57
877 31.28 78
878 31.31 100
879 31.34 107
880 31.37 123
881 31.4 90
882 31.43 87
883 31.46 70
884 31.49 49
885 31.52 44
886 31.55 34
887 31.58 28
888 31.61 33
889 31.64 20
890 31.67 26
891 31.7 19
892 31.73 22
893 31.76 16
894 31.79 23
895 31.82 17
896 31.85 19
897 31.88 24
898 31.91 26
899 31.94 33
900 31.97 35
901 32 45
902 32.03 56
903 32.06 53
904 32.09 72
905 32.12 72
906 32.15 67
907 32.18 60
908 32.21 57
909 32.24 49
910 32.27 37
911 32.3 40
912 32.33 39
913 32.36 34
914 32.39 29
915 32.42 27
916 32.45 25
917 32.48 22
918 32.51 22
919 32.54 22
920 32.57 17
921 32.6 20
922 32.63 22
923 32.66 14
924 32.69 29
925 32.72 29
926 32.75 22
927 32.78 19
928 32.81 15
929 32.84 20
930 32.87 16
931 32.9 16
932 32.93 15
933 32.96 15
934 32.99 16
935 33.02 20
936 33.05 30
937 33.08 23
938 33.11 35
939 33.14 36
940 33.17 42
941 33.2 49
942 33.23 47
943 33.26 64
944 33.29 91
945 33.32 77
946 33.35 100
947 33.38 109
948 33.41 169
949 33.44 208
950 33.47 226
951 33.5 279
952 33.53 338
953 33.56 323
954 33.59 369
955 33.62 374
956 33.65 355
957 33.68 283
958 33.71 228
959 33.74 183
960 33.77 114
961 33.8 90
962 33.83 68
963 33.86 49
964 33.89 34
965 33.92 31
966 33.95 26
967 33.98 25
968 34.01 18
969 34.04 23
970 34.07 14
971 34.1 15
972 34.13 14
973 34.16 14
974 34.19 15
975 34.22 14
976 34.25 24
977 34.28 27
978 34.31 16
979 34.34 21
980 34.37 26
981 34.4 35
982 34.43 37
983 34.46 61
984 34.49 58
985 34.52 82
986 34.55 92
987 34.58 102
988 34.61 99
989 34.64 112
990 34.67 96
991 34.7 95
992 34.73 73
993 34.76 55
994 34.79 59
995 34.82 56
996 34.85 64
997 34.88 57
998 34.91 68
999 34.94 84
1000 34.97 98
1001 35 94
1002 35.03 113
1003 35.06 78
1004 35.09 88
1005 35.12 100
1006 35.15 81
1007 35.18 87
1008 35.21 91
1009 35.24 82
1010 35.27 73
1011 35.3 67
1012 35.33 67
1013 35.36 57
1014 35.39 54
1015 35.42 52
1016 35.45 56
1017 35.48 62
1018 35.51 90
1019 35.54 80
1020 35.57 83
1021 35.6 70
1022 35.63 67
1023 35.66 57
1024 35.69 38
1025 35.72 33
1026 35.75 27
1027 35.78 21
1028 35.81 18
1029 35.84 22
1030 35.87 17
1031 35.9 19
1032 35.93 18
1033 35.96 25
1034 35.99 19
1035 36.02 28
1036 36.05 25
1037 36.08 35
1038 36.11 41
1039 36.14 37
1040 36.17 41
1041 36.2 40
1042 36.23 44
1043 36.26 40
1044 36.29 45
1045 36.32 44
1046 36.35 52
1047 36.38 45
1048 36.41 55
1049 36.44 66
1050 36.47 82
1051 36.5 119
1052 36.53 167
1053 36.56 197
1054 36.59 241
1055 36.62 294
1056 36.65 305
1057 36.68 308
1058 36.71 282
1059 36.74 237
1060 36.77 199
1061 36.8 152
1062 36.83 101
1063 36.86 81
1064 36.89 60
1065 36.92 40
1066 36.95 29
1067 36.98 25
1068 37.01 19
1069 37.04 14
1070 37.07 19
1071 37.1 13
1072 37.13 18
1073 37.16 15
1074 37.19 16
1075 37.22 16
1076 37.25 12
1077 37.28 15
1078 37.31 16
1079 37.34 17
1080 37.37 12
1081 37.4 16
1082 37.43 18
1083 37.46 14
1084 37.49 18
1085 37.52 15
1086 37.55 20
1087 37.58 15
1088 37.61 17
1089 37.64 12
1090 37.67 18
1091 37.7 16
1092 37.73 16
1093 37.76 15
1094 37.79 14
1095 37.82 14
1096 37.85 17
1097 37.88 25
1098 37.91 29
1099 37.94 40
1100 37.97 50
1101 38 69
1102 38.03 80
1103 38.06 96
1104 38.09 110
1105 38.12 97
1106 38.15 88
1107 38.18 91
1108 38.21 79
1109 38.24 77
1110 38.27 64
1111 38.3 59
1112 38.33 59
1113 38.36 58
1114 38.39 73
1115 38.42 89
1116 38.45 112
1117 38.48 116
1118 38.51 123
1119 38.54 118
1120 38.57 112
1121 38.6 95
1122 38.63 81
1123 38.66 70
1124 38.69 62
1125 38.72 47
1126 38.75 50
1127 38.78 42
1128 38.81 41
1129 38.84 35
1130 38.87 40
1131 38.9 54
1132 38.93 74
1133 38.96 73
1134 38.99 78
1135 39.02 83
1136 39.05 72
1137 39.08 64
1138 39.11 61
1139 39.14 61
1140 39.17 45
1141 39.2 42
1142 39.23 28
1143 39.26 22
1144 39.29 26
1145 39.32 24
1146 39.35 16
1147 39.38 16
1148 39.41 18
1149 39.44 13
1150 39.47 11
1151 39.5 10
1152 39.53 17
1153 39.56 17
1154 39.59 17
1155 39.62 19
1156 39.65 12
1157 39.68 18
1158 39.71 17
1159 39.74 17
1160 39.77 11
1161 39.8 9
1162 39.83 8
1163 39.86 10
1164 39.89 13
1165 39.92 9
1166 39.95 11
1167 39.98 9
1168 40.01 12
1169 40.04 12
1170 40.07 12
1171 40.1 10
1172 40.13 12
1173 40.16 15
1174 40.19 13
1175 40.22 11
1176 40.25 12
1177 40.28 15
1178 40.31 10
1179 40.34 12
1180 40.37 14
1181 40.4 7
1182 40.43 11
1183 40.46 11
1184 40.49 9
1185 40.52 13
1186 40.55 10
1187 40.58 5
1188 40.61 11
1189 40.64 14
1190 40.67 9
1191 40.7 14
1192 40.73 7
1193 40.76 8
1194 40.79 9
1195 40.82 11
1196 40.85 12
1197 40.88 15
1198 40.91 9
1199 40.94 8
1200 40.97 7
1201 41 8
1202 41.03 11
1203 41.06 7
1204 41.09 10
1205 41.12 13
1206 41.15 7
1207 41.18 7
1208 41.21 8
1209 41.24 7
1210 41.27 10
1211 41.3 11
1212 41.33 14
1213 41.36 11
1214 41.39 11
1215 41.42 12
1216 41.45 17
1217 41.48 17
1218 41.51 14
1219 41.54 15
1220 41.57 20
1221 41.6 19
1222 41.63 24
1223 41.66 27
1224 41.69 28
1225 41.72 35
1226 41.75 34
1227 41.78 29
1228 41.81 29
1229 41.84 34
1230 41.87 35
1231 41.9 32
1232 41.93 27
1233 41.96 28
1234 41.99 21
1235 42.02 33
1236 42.05 28
1237 42.08 40
1238 42.11 32
1239 42.14 43
1240 42.17 36
1241 42.2 26
1242 42.23 32
1243 42.26 32
1244 42.29 23
1245 42.32 30
1246 42.35 34
1247 42.38 50
1248 42.41 47
1249 42.44 63
1250 42.47 71
1251 42.5 81
1252 42.53 92
1253 42.56 91
1254 42.59 96
1255 42.62 84
1256 42.65 68
1257 42.68 71
1258 42.71 66
1259 42.74 51
1260 42.77 40
1261 42.8 34
1262 42.83 24
1263 42.86 25
1264 42.89 27
1265 42.92 19
1266 42.95 15
1267 42.98 17
1268 43.01 18
1269 43.04 11
1270 43.07 10
1271 43.1 10
1272 43.13 11
1273 43.16 9
1274 43.19 15
1275 43.22 13
1276 43.25 15
1277 43.28 14
1278 43.31 15
1279 43.34 12
1280 43.37 14
1281 43.4 17
1282 43.43 17
1283 43.46 10
1284 43.49 9
1285 43.52 11
1286 43.55 11
1287 43.58 12
1288 43.61 13
1289 43.64 15
1290 43.67 9
1291 43.7 9
1292 43.73 7
1293 43.76 13
1294 43.79 9
1295 43.82 13
1296 43.85 10
1297 43.88 11
1298 43.91 12
1299 43.94 10
1300 43.97 6
1301 44 10
1302 44.03 12
1303 44.06 12
1304 44.09 14
1305 44.12 15
1306 44.15 19
1307 44.18 27
1308 44.21 36
1309 44.24 35
1310 44.27 31
1311 44.3 33
1312 44.33 37
1313 44.36 41
1314 44.39 41
1315 44.42 35
1316 44.45 44
1317 44.48 28
1318 44.51 41
1319 44.54 39
1320 44.57 35
1321 44.6 43
1322 44.63 39
1323 44.66 35
1324 44.69 41
1325 44.72 46
1326 44.75 45
1327 44.78 50
1328 44.81 52
1329 44.84 45
1330 44.87 42
1331 44.9 35
1332 44.93 36
1333 44.96 37
1334 44.99 31
1335 45.02 28
1336 45.05 25
1337 45.08 20
1338 45.11 24
1339 45.14 28
1340 45.17 37
1341 45.2 36
1342 45.23 48
1343 45.26 52
1344 45.29 42
1345 45.32 43
1346 45.35 42
1347 45.38 38
1348 45.41 36
1349 45.44 18
1350 45.47 23
1351 45.5 18
1352 45.53 25
1353 45.56 17
1354 45.59 17
1355 45.62 13
1356 45.65 18
1357 45.68 15
1358 45.71 15
1359 45.74 17
1360 45.77 14
1361 45.8 17
1362 45.83 16
1363 45.86 15
1364 45.89 13
1365 45.92 17
1366 45.95 26
1367 45.98 22
1368 46.01 32
1369 46.04 38
1370 46.07 37
1371 46.1 45
1372 46.13 46
1373 46.16 41
1374 46.19 32
1375 46.22 37
1376 46.25 37
1377 46.28 31
1378 46.31 28
1379 46.34 30
1380 46.37 31
1381 46.4 23
1382 46.43 34
1383 46.46 42
1384 46.49 50
1385 46.52 42
1386 46.55 44
1387 46.58 50
1388 46.61 42
1389 46.64 37
1390 46.67 32
1391 46.7 34
1392 46.73 28
1393 46.76 27
1394 46.79 17
1395 46.82 18
1396 46.85 18
1397 46.88 17
1398 46.91 11
1399 46.94 12
1400 46.97 12
1401 47 14
1402 47.03 12
1403 47.06 13
1404 47.09 16
1405 47.12 10
1406 47.15 10
1407 47.18 16
1408 47.21 13
1409 47.24 13
1410 47.27 14
1411 47.3 17
1412 47.33 18
1413 47.36 21
1414 47.39 32
1415 47.42 35
1416 47.45 59
1417 47.48 62
1418 47.51 85
1419 47.54 73
1420 47.57 84
1421 47.6 59
1422 47.63 62
1423 47.66 50
1424 47.69 60
1425 47.72 50
1426 47.75 32
1427 47.78 29
1428 47.81 37
1429 47.84 23
1430 47.87 26
1431 47.9 20
1432 47.93 28
1433 47.96 21
1434 47.99 18
1435 48.02 18
1436 48.05 15
1437 48.08 20
1438 48.11 18
1439 48.14 19
1440 48.17 19
1441 48.2 15
1442 48.23 17
1443 48.26 16
1444 48.29 20
1445 48.32 16
1446 48.35 15
1447 48.38 19
1448 48.41 10
1449 48.44 13
1450 48.47 11
1451 48.5 14
1452 48.53 14
1453 48.56 10
1454 48.59 14
1455 48.62 17
1456 48.65 19
1457 48.68 17
1458 48.71 20
1459 48.74 18
1460 48.77 14
1461 48.8 18
1462 48.83 22
1463 48.86 17
1464 48.89 19
1465 48.92 16
1466 48.95 12
1467 48.98 26
1468 49.01 23
1469 49.04 22
1470 49.07 24
1471 49.1 26
1472 49.13 27
1473 49.16 26
1474 49.19 41
1475 49.22 46
1476 49.25 43
1477 49.28 47
1478 49.31 58
1479 49.34 61
1480 49.37 58
1481 49.4 71
1482 49.43 67
1483 49.46 73
1484 49.49 62
1485 49.52 48
1486 49.55 46
1487 49.58 46
1488 49.61 42
1489 49.64 35
1490 49.67 26
1491 49.7 26
1492 49.73 20
1493 49.76 19
1494 49.79 18
1495 49.82 13
1496 49.85 20
1497 49.88 17
1498 49.91 18
1499 49.94 24
1500 49.97 28
1501 50 35
1502 50.03 31
1503 50.06 43
1504 50.09 42
1505 50.12 53
1506 50.15 63
1507 50.18 67
1508 50.21 64
1509 50.24 72
1510 50.27 91
1511 50.3 75
1512 50.33 66
1513 50.36 67
1514 50.39 82
1515 50.42 59
1516 50.45 55
1517 50.48 56
1518 50.51 54
1519 50.54 55
1520 50.57 69
1521 50.6 66
1522 50.63 72
1523 50.66 92
1524 50.69 91
1525 50.72 97
1526 50.75 100
1527 50.78 76
1528 50.81 93
1529 50.84 90
1530 50.87 79
1531 50.9 69
1532 50.93 56
1533 50.96 59
1534 50.99 38
1535 51.02 35
1536 51.05 30
1537 51.08 35
1538 51.11 22
1539 51.14 28
1540 51.17 23
1541 51.2 18
1542 51.23 22
1543 51.26 25
1544 51.29 20
1545 51.32 16
1546 51.35 20
1547 51.38 18
1548 51.41 15
1549 51.44 12
1550 51.47 18
1551 51.5 16
1552 51.53 17
1553 51.56 17
1554 51.59 18
1555 51.62 18
1556 51.65 25
1557 51.68 23
1558 51.71 23
1559 51.74 30
1560 51.77 23
1561 51.8 30
1562 51.83 32
1563 51.86 32
1564 51.89 35
1565 51.92 33
1566 51.95 34
1567 51.98 35
1568 52.01 33
1569 52.04 27
1570 52.07 31
1571 52.1 25
1572 52.13 22
1573 52.16 20
1574 52.19 22
1575 52.22 20
1576 52.25 16
1577 52.28 20
1578 52.31 11
1579 52.34 16
1580 52.37 13
1581 52.4 13
1582 52.43 15
1583 52.46 12
1584 52.49 14
1585 52.52 15
1586 52.55 20
1587 52.58 16
1588 52.61 21
1589 52.64 26
1590 52.67 24
1591 52.7 32
1592 52.73 43
1593 52.76 42
1594 52.79 43
1595 52.82 52
1596 52.85 37
1597 52.88 55
1598 52.91 53
1599 52.94 56
1600 52.97 44
1601 53 43
1602 53.03 44
1603 53.06 39
1604 53.09 30
1605 53.12 30
1606 53.15 35
1607 53.18 22
1608 53.21 26
1609 53.24 27
1610 53.27 22
1611 53.3 28
1612 53.33 24
1613 53.36 21
1614 53.39 21
1615 53.42 12
1616 53.45 22
1617 53.48 17
1618 53.51 17
1619 53.54 14
1620 53.57 21
1621 53.6 12
1622 53.63 16
1623 53.66 18
1624 53.69 18
1625 53.72 12
1626 53.75 19
1627 53.78 14
1628 53.81 23
1629 53.84 16
1630 53.87 20
1631 53.9 16
1632 53.93 18
1633 53.96 20
1634 53.99 21
1635 54.02 25
1636 54.05 30
1637 54.08 26
1638 54.11 26
1639 54.14 40
1640 54.17 34
1641 54.2 42
1642 54.23 39
1643 54.26 42
1644 54.29 50
1645 54.32 51
1646 54.35 67
1647 54.38 74
1648 54.41 72
1649 54.44 81
1650 54.47 74
1651 54.5 64
1652 54.53 67
1653 54.56 66
1654 54.59 62
1655 54.62 55
1656 54.65 49
1657 54.68 42
1658 54.71 36
1659 54.74 36
1660 54.77 30
1661 54.8 20
1662 54.83 27
1663 54.86 20
1664 54.89 25
1665 54.92 25
1666 54.95 26
1667 54.98 27
1668 55.01 45
1669 55.04 40
1670 55.07 55
1671 55.1 56
1672 55.13 60
1673 55.16 72
1674 55.19 62
1675 55.22 75
1676 55.25 69
1677 55.28 57
1678 55.31 48
1679 55.34 52
1680 55.37 41
1681 55.4 37
1682 55.43 29
1683 55.46 25
1684 55.49 18
1685 55.52 28
1686 55.55 22
1687 55.58 16
1688 55.61 18
1689 55.64 17
1690 55.67 14
1691 55.7 22
1692 55.73 23
1693 55.76 20
1694 55.79 23
1695 55.82 24
1696 55.85 21
1697 55.88 30
1698 55.91 31
1699 55.94 25
1700 55.97 32
1701 56 36
1702 56.03 38
1703 56.06 41
1704 56.09 41
1705 56.12 41
1706 56.15 48
1707 56.18 64
1708 56.21 58
1709 56.24 65
1710 56.27 75
1711 56.3 54
1712 56.33 63
1713 56.36 52
1714 56.39 47
1715 56.42 39
1716 56.45 37
1717 56.48 30
1718 56.51 30
1719 56.54 24
1720 56.57 22
1721 56.6 24
1722 56.63 26
1723 56.66 23
1724 56.69 19
1725 56.72 23
1726 56.75 15
1727 56.78 19
1728 56.81 17
1729 56.84 15
1730 56.87 16
1731 56.9 11
1732 56.93 14
1733 56.96 15
1734 56.99 17
1735 57.02 19
1736 57.05 13
1737 57.08 17
1738 57.11 12
1739 57.14 21
1740 57.17 20
1741 57.2 22
1742 57.23 19
1743 57.26 17
1744 57.29 25
1745 57.32 23
1746 57.35 28
1747 57.38 34
1748 57.41 36
1749 57.44 29
1750 57.47 28
1751 57.5 31
1752 57.53 25
1753 57.56 27
1754 57.59 26
1755 57.62 19
1756 57.65 28
1757 57.68 27
1758 57.71 33
1759 57.74 30
1760 57.77 31
1761 57.8 33
1762 57.83 30
1763 57.86 35
1764 57.89 22
1765 57.92 21
1766 57.95 25
1767 57.98 21
1768 58.01 20
1769 58.04 23
1770 58.07 19
1771 58.1 23
1772 58.13 19
1773 58.16 21
1774 58.19 25
1775 58.22 22
1776 58.25 27
1777 58.28 26
1778 58.31 30
1779 58.34 32
1780 58.37 27
1781 58.4 34
1782 58.43 39
1783 58.46 39
1784 58.49 31
1785 58.52 44
1786 58.55 32
1787 58.58 37
1788 58.61 35
1789 58.64 50
1790 58.67 36
1791 58.7 38
1792 58.73 38
1793 58.76 24
1794 58.79 29
1795 58.82 28
1796 58.85 24
1797 58.88 22
1798 58.91 28
1799 58.94 25
1800 58.97 23
1801 59 22
1802 59.03 26
1803 59.06 24
1804 59.09 20
1805 59.12 19
1806 59.15 24
1807 59.18 23
1808 59.21 27
1809 59.24 30
1810 59.27 43
1811 59.3 35
1812 59.33 45
1813 59.36 58
1814 59.39 67
1815 59.42 52
1816 59.45 52
1817 59.48 72
1818 59.51 74
1819 59.54 70
1820 59.57 63
1821 59.6 67
1822 59.63 63
1823 59.66 65
1824 59.69 52
1825 59.72 60
1826 59.75 58
1827 59.78 59
1828 59.81 77
1829 59.84 73
1830 59.87 82
1831 59.9 87
1832 59.93 71
1833 59.96 69
1834 59.99 64
1835 60.02 92



_exptl_crystal_density_diffrn
1.474(4)
_geom_special_details
'Shape of the molecules fixed'
_refine_ls_goodness_of_fit_all
1.49
_chemical_formula_iupac
'(C H3)4 N Cl O4'
_chemical_formula_structural
'(C H3)4 N Cl O4'
_cell_formula_units_Z
4
_chemical_formula_moiety
'C4 H12  N Cl O4'
_cell_length_a
11.566(2)
_cell_length_b
11.806(2)
_cell_length_c
5.7292(11)
_chemical_formula_weight
173.60
_computing_structure_refinement
'FULLPROF'
_refine_ls_weighting_scheme
sigma
_symmetry_space_group_name_H-M
'P 2~1~ 2~1~ 2'
_cell_angle_gamma
90.0
_cell_measurement_temperature
30.0(10)
_computing_data_reduction
'FULLPROF'
_computing_cell_refinement
;        FULLPROF (Rodriguez-Carvajal et. al 1987)
;
_refine_ls_shift/su_max
0.02
_diffrn_radiation_monochromator
'graphite'
_chemical_name_systematic
;
 tetramethylammonium perchlorate
;
_computing_structure_solution
none
_cell_volume
782.3(3)
_refine_ls_structure_factor_coef
Inet
_refine_ls_hydrogen_treatment
noref
_exptl_crystal_F_000
368
_symmetry_cell_setting
orthorhombic
_diffrn_ambient_temperature
30.0(10)
_computing_data_collection
'Rigaku IUSA 2.8'
_refine_ls_shift/su_mean
0.001
_refine_ls_extinction_method
none
_exptl_crystal_density_method
'not measured'
_diffrn_measurement_device_type
'Dmax Rigaku diffractometer'
_cell_angle_alpha
90.0
_refine_ls_number_parameters
34
_chemical_formula_sum
'C4 H12 Cl N O4'
_refine_ls_matrix_type
fullcycle
_cell_angle_beta
90.0
loop_
_symmetry_equiv_pos_site_id
_symmetry_equiv_pos_as_xyz
1 
;x, y, z
;
2 
;-x, -y, z
;
3 
;x+1/2, -y+1/2, -z
;
4 
;-x+1/2, y+1/2, -z
;

loop_
_diffrn_radiation_type
_diffrn_radiation_wavelength
CuK\a~1~ 1.54056
CuK\a~2~ 1.54439

loop_
_atom_type_symbol
_atom_type_description
_atom_type_scat_dispersion_real
_atom_type_scat_dispersion_imag
_atom_type_scat_source
C C 0.0033 0.0016 
;International Tables Vol C Tables 4.2.6.8 and 6.1.1.4
;
H H 0.0000 0.0000 
;International Tables Vol C Tables 4.2.6.8 and 6.1.1.4
;
Cl Cl 0.1484 0.1585 
;International Tables Vol C Tables 4.2.6.8 and 6.1.1.4
;
N N 0.0061 0.0033 
;International Tables Vol C Tables 4.2.6.8 and 6.1.1.4
;
O O 0.0106 0.0060 
;International Tables Vol C Tables 4.2.6.8 and 6.1.1.4
;

loop_
_atom_site_label
_atom_site_fract_x
_atom_site_fract_y
_atom_site_fract_z
_atom_site_u_iso_or_equiv
_atom_site_thermal_displace_type
_atom_site_occupancy
_atom_site_type_symbol
Cl 0.2353(4) 0.2471(16) 0.0680(7) 0.027(3) Uiso 1 Cl
O1 0.2497 0.2464 -0.1847 0.026(4) Uiso 1 O
O2 0.1127 0.2403 0.1249 0.026(4) Uiso 1 O
O3 0.2955 0.1503 0.1686 0.026(4) Uiso 1 O
O4 0.2832 0.3515 0.1632 0.026(4) Uiso 1 O
N1 0 0 0.482(14) 0 Uiso 1 N
N2 0 0.5 0.484(14) 0 Uiso 1 N
C1 0.0828 0.5663 0.3347 0 Uiso 1 C
C2 0.0809 -0.0620 0.3220 0 Uiso 1 C
C3 0.06380 0.0800 0.6404 0 Uiso 1 C
C4 -0.0828 0.4338 0.3347 0 Uiso 1 C
H1 0.1356 0.6085 0.4352 0 Uiso 1 H
H2 0.1256 0.5112 0.2337 0 Uiso 1 H
H3 0.0362 0.6183 0.2337 0 Uiso 1 H
H4 -0.0927 -0.1455 0.4339 0 Uiso 1 H
H5 0.0046 -0.1235 0.2324 0 Uiso 1 H
H6 -0.1152 -0.0502 0.2324 0 Uiso 1 H
H7 0.1078 0.1351 0.5307 0 Uiso 1 H
H8 0.1200 0.0381 0.7322 0 Uiso 1 H
H9 0.0087 0.1232 0.7322 0 Uiso 1 H
H10 0.1108 0.3672 0.4352 0 Uiso 1 H
H11 0.1208 0.4645 0.2337 0 Uiso 1 H
H12 0.0114 0.3770 0.2337 0 Uiso 1 H

loop_
_geom_bond_atom_site_label_1
_geom_bond_atom_site_label_2
_geom_bond_site_symmetry_2
_geom_bond_distance
_geom_bond_publ_flag
N1 C2 . 1.5018(2) yes
N1 C3 . 1.5018(2) no
N2 C1 . 1.5018(2) no
N2 C4 . 1.5018(2) no
Cl O1 . 1.45720(10) yes
Cl O2 . 1.45720(10) no
Cl O3 . 1.45720(10) no
Cl O4 . 1.45720(10) no

loop_
_geom_angle_atom_site_label_1
_geom_angle_atom_site_label_2
_geom_angle_atom_site_label_3
_geom_angle_site_symmetry_1
_geom_angle_site_symmetry_3
_geom_angle
_geom_angle_publ_flag
O1 Cl O2 . . 109.47 no
O1 Cl O3 . . 109.47 no
O1 Cl O4 . . 109.47 no
O2 Cl O3 . . 109.47 no
O2 Cl O4 . . 109.47 no
O3 Cl O4 . . 109.47 no



# powder data simulated using PLATON:

data_III_simulated_

_publcif_pd_cifplot 'simulated 2021-03-25'

